benchmarks_CP/INST_64x64/50/inst64x64_50_15.dzn
S=8;
start=[|
17,	-1,	11,	-1,	-1,	-1,	-1,	32,	-1,	-1,	44,	15,	59,	-1,	-1,	49,	42,	-1,	-1,	-1,	29,	-1,	13,	-1,	-1,	-1,	-1,	-1,	2,	47,	14,	48,	-1,	-1,	18,	-1,	-1,	22,	55,	-1,	-1,	-1,	16,	8,	-1,	50,	30,	1,	-1,	26,	-1,	60,	6,	-1,	-1,	21,	-1,	56,	-1,	12,	53,	4,	41,	-1|
12,	25,	-1,	-1,	-1,	-1,	59,	-1,	41,	9,	1,	13,	-1,	45,	55,	32,	-1,	44,	24,	22,	7,	-1,	8,	35,	-1,	30,	21,	-1,	61,	29,	-1,	56,	53,	-1,	57,	40,	-1,	62,	47,	-1,	46,	-1,	-1,	34,	64,	48,	-1,	27,	-1,	-1,	39,	-1,	-1,	23,	58,	-1,	10,	-1,	11,	-1,	17,	37,	19,	16|
-1,	30,	-1,	50,	-1,	-1,	-1,	22,	-1,	48,	25,	20,	4,	53,	-1,	-1,	-1,	60,	-1,	-1,	-1,	21,	52,	-1,	-1,	31,	-1,	58,	-1,	-1,	-1,	40,	35,	42,	-1,	13,	64,	23,	6,	26,	-1,	-1,	11,	-1,	-1,	-1,	12,	-1,	17,	-1,	-1,	27,	-1,	-1,	7,	-1,	-1,	-1,	1,	51,	-1,	43,	-1,	-1|
37,	24,	-1,	64,	49,	-1,	-1,	-1,	22,	-1,	-1,	-1,	-1,	-1,	16,	-1,	58,	4,	30,	12,	47,	20,	-1,	11,	-1,	50,	46,	-1,	36,	-1,	-1,	-1,	1,	32,	29,	-1,	-1,	10,	-1,	-1,	-1,	35,	-1,	23,	-1,	-1,	-1,	7,	-1,	-1,	19,	8,	-1,	-1,	18,	-1,	3,	55,	-1,	42,	-1,	-1,	13,	-1|
-1,	-1,	-1,	33,	62,	-1,	-1,	-1,	63,	36,	-1,	7,	10,	23,	17,	-1,	28,	18,	39,	-1,	-1,	-1,	-1,	-1,	-1,	-1,	37,	-1,	64,	26,	53,	22,	30,	-1,	9,	-1,	54,	-1,	-1,	-1,	-1,	-1,	58,	43,	-1,	19,	-1,	21,	-1,	59,	-1,	-1,	-1,	-1,	-1,	38,	50,	46,	2,	-1,	-1,	-1,	47,	-1|
40,	41,	35,	-1,	-1,	52,	-1,	1,	-1,	-1,	-1,	8,	-1,	-1,	-1,	-1,	3,	-1,	37,	-1,	-1,	50,	31,	32,	-1,	-1,	16,	60,	-1,	44,	18,	7,	20,	49,	-1,	-1,	-1,	56,	-1,	46,	4,	-1,	-1,	-1,	39,	-1,	-1,	-1,	-1,	-1,	13,	12,	43,	-1,	25,	-1,	-1,	14,	61,	45,	36,	-1,	-1,	6|
4,	54,	23,	-1,	27,	-1,	-1,	-1,	33,	26,	-1,	-1,	56,	46,	50,	51,	-1,	16,	-1,	-1,	14,	-1,	-1,	6,	-1,	-1,	63,	39,	-1,	13,	24,	34,	19,	-1,	5,	11,	36,	37,	7,	-1,	-1,	-1,	-1,	15,	-1,	-1,	-1,	-1,	49,	-1,	-1,	-1,	22,	-1,	-1,	3,	60,	-1,	25,	35,	-1,	21,	48,	-1|
43,	-1,	-1,	55,	16,	-1,	-1,	45,	58,	12,	-1,	60,	-1,	29,	-1,	-1,	48,	-1,	-1,	36,	46,	-1,	-1,	15,	-1,	-1,	19,	-1,	49,	-1,	-1,	35,	-1,	44,	51,	-1,	-1,	-1,	38,	-1,	56,	-1,	-1,	-1,	61,	-1,	-1,	-1,	-1,	41,	-1,	37,	-1,	47,	-1,	31,	-1,	22,	8,	30,	23,	59,	52,	7|
-1,	5,	10,	13,	-1,	2,	54,	-1,	-1,	14,	-1,	50,	-1,	1,	-1,	18,	27,	22,	9,	-1,	-1,	-1,	26,	-1,	57,	-1,	3,	43,	39,	-1,	61,	11,	-1,	-1,	62,	-1,	-1,	-1,	37,	49,	-1,	-1,	29,	-1,	-1,	30,	-1,	8,	46,	20,	53,	4,	7,	-1,	-1,	-1,	-1,	31,	16,	19,	38,	-1,	-1,	40|
22,	-1,	37,	24,	-1,	-1,	32,	-1,	44,	52,	29,	28,	40,	33,	-1,	35,	-1,	-1,	11,	-1,	-1,	8,	45,	25,	-1,	38,	-1,	16,	-1,	-1,	-1,	1,	-1,	51,	-1,	19,	58,	-1,	63,	-1,	-1,	-1,	23,	-1,	-1,	15,	-1,	56,	-1,	-1,	-1,	-1,	14,	-1,	-1,	27,	4,	48,	-1,	-1,	62,	13,	-1,	-1|
41,	11,	-1,	-1,	-1,	26,	4,	39,	-1,	-1,	-1,	38,	-1,	-1,	-1,	37,	5,	-1,	20,	58,	-1,	48,	46,	13,	-1,	8,	-1,	55,	23,	-1,	44,	-1,	-1,	-1,	32,	28,	-1,	18,	-1,	-1,	-1,	9,	-1,	-1,	-1,	-1,	-1,	-1,	24,	57,	43,	-1,	-1,	17,	-1,	6,	-1,	-1,	30,	49,	12,	-1,	-1,	-1|
45,	-1,	31,	-1,	-1,	-1,	15,	21,	-1,	-1,	60,	26,	25,	-1,	32,	-1,	-1,	-1,	33,	-1,	18,	-1,	62,	53,	47,	-1,	7,	28,	13,	51,	-1,	-1,	-1,	46,	-1,	-1,	-1,	-1,	-1,	29,	49,	39,	38,	4,	14,	58,	-1,	-1,	52,	56,	-1,	-1,	-1,	-1,	-1,	-1,	34,	-1,	9,	44,	43,	-1,	-1,	-1|
60,	-1,	-1,	-1,	29,	-1,	56,	57,	-1,	51,	-1,	19,	-1,	-1,	-1,	-1,	40,	-1,	-1,	30,	-1,	4,	7,	39,	46,	25,	-1,	-1,	10,	-1,	-1,	6,	26,	45,	-1,	22,	-1,	-1,	31,	-1,	-1,	28,	37,	5,	43,	52,	61,	-1,	8,	11,	-1,	38,	13,	16,	2,	-1,	-1,	64,	18,	33,	-1,	-1,	-1,	-1|
-1,	19,	-1,	-1,	-1,	-1,	33,	-1,	-1,	-1,	41,	61,	20,	49,	13,	-1,	-1,	-1,	-1,	-1,	23,	29,	-1,	-1,	-1,	-1,	64,	-1,	-1,	60,	-1,	5,	21,	-1,	56,	39,	-1,	-1,	1,	-1,	27,	-1,	63,	46,	32,	-1,	18,	-1,	-1,	45,	-1,	28,	-1,	10,	-1,	9,	-1,	-1,	47,	25,	-1,	-1,	-1,	57|
-1,	-1,	-1,	52,	38,	-1,	9,	-1,	46,	53,	43,	58,	-1,	-1,	-1,	-1,	54,	21,	-1,	28,	-1,	-1,	16,	-1,	-1,	18,	35,	24,	4,	-1,	-1,	37,	41,	-1,	6,	8,	17,	5,	23,	13,	-1,	7,	-1,	60,	-1,	-1,	-1,	44,	-1,	-1,	-1,	63,	-1,	30,	47,	-1,	26,	45,	36,	55,	-1,	-1,	22,	-1|
-1,	-1,	43,	53,	-1,	-1,	-1,	8,	45,	-1,	31,	-1,	-1,	-1,	27,	-1,	12,	49,	59,	-1,	-1,	-1,	41,	14,	-1,	26,	15,	52,	-1,	17,	-1,	50,	-1,	48,	-1,	-1,	35,	-1,	30,	-1,	-1,	22,	10,	-1,	24,	36,	-1,	-1,	-1,	37,	-1,	33,	-1,	29,	-1,	58,	-1,	-1,	-1,	11,	39,	46,	1,	-1|
-1,	-1,	-1,	48,	-1,	60,	-1,	-1,	39,	-1,	-1,	32,	13,	22,	43,	15,	29,	-1,	47,	-1,	17,	-1,	59,	41,	-1,	3,	-1,	-1,	-1,	56,	64,	-1,	42,	-1,	-1,	-1,	-1,	-1,	-1,	-1,	-1,	6,	62,	-1,	-1,	40,	-1,	-1,	11,	-1,	4,	-1,	-1,	-1,	45,	-1,	57,	12,	-1,	1,	25,	55,	-1,	-1|
14,	31,	44,	-1,	-1,	-1,	62,	-1,	16,	59,	61,	-1,	21,	56,	-1,	54,	11,	5,	-1,	39,	-1,	-1,	-1,	-1,	37,	63,	10,	-1,	41,	-1,	-1,	12,	57,	-1,	-1,	-1,	24,	-1,	-1,	-1,	36,	-1,	3,	-1,	7,	27,	-1,	19,	13,	28,	52,	-1,	-1,	53,	-1,	1,	2,	-1,	-1,	22,	30,	35,	-1,	-1|
21,	42,	-1,	-1,	22,	-1,	-1,	-1,	-1,	19,	-1,	-1,	24,	-1,	-1,	63,	-1,	7,	40,	-1,	-1,	-1,	23,	-1,	39,	6,	-1,	27,	53,	5,	-1,	36,	-1,	-1,	1,	61,	-1,	55,	51,	25,	-1,	20,	13,	-1,	-1,	-1,	-1,	-1,	-1,	3,	-1,	-1,	-1,	-1,	49,	46,	45,	37,	-1,	8,	59,	-1,	-1,	31|
35,	-1,	-1,	-1,	-1,	4,	-1,	-1,	-1,	-1,	28,	-1,	-1,	-1,	-1,	41,	1,	52,	-1,	13,	-1,	53,	61,	-1,	-1,	42,	51,	38,	-1,	25,	45,	-1,	63,	6,	50,	48,	16,	-1,	-1,	-1,	-1,	54,	-1,	39,	47,	-1,	57,	-1,	12,	43,	-1,	-1,	-1,	-1,	-1,	-1,	11,	34,	-1,	-1,	64,	-1,	33,	-1|
3,	43,	64,	61,	-1,	39,	46,	-1,	14,	-1,	12,	-1,	-1,	30,	-1,	-1,	-1,	25,	42,	-1,	24,	-1,	51,	-1,	13,	54,	2,	-1,	19,	-1,	11,	-1,	-1,	28,	-1,	7,	52,	-1,	-1,	37,	1,	-1,	-1,	32,	-1,	4,	-1,	-1,	-1,	40,	-1,	9,	23,	-1,	62,	-1,	41,	15,	-1,	-1,	26,	-1,	27,	-1|
20,	47,	-1,	57,	24,	10,	11,	50,	-1,	-1,	33,	-1,	26,	42,	-1,	-1,	45,	58,	-1,	54,	-1,	16,	-1,	-1,	-1,	46,	59,	-1,	-1,	-1,	48,	52,	-1,	38,	8,	-1,	-1,	-1,	-1,	-1,	-1,	17,	-1,	-1,	-1,	-1,	-1,	-1,	6,	-1,	64,	15,	51,	36,	-1,	55,	-1,	61,	44,	9,	14,	-1,	18,	-1|
-1,	-1,	7,	-1,	1,	-1,	36,	27,	20,	-1,	-1,	11,	50,	57,	53,	9,	-1,	28,	-1,	-1,	56,	26,	33,	34,	-1,	14,	32,	62,	55,	-1,	-1,	-1,	-1,	-1,	3,	49,	10,	29,	-1,	-1,	5,	61,	-1,	30,	-1,	-1,	-1,	-1,	38,	-1,	44,	42,	19,	58,	48,	-1,	16,	6,	52,	-1,	-1,	40,	-1,	54|
-1,	-1,	-1,	49,	40,	56,	-1,	-1,	-1,	-1,	-1,	-1,	44,	-1,	-1,	48,	-1,	14,	-1,	-1,	-1,	-1,	-1,	-1,	61,	57,	-1,	-1,	-1,	-1,	16,	-1,	11,	26,	33,	-1,	-1,	43,	64,	53,	37,	-1,	42,	58,	29,	25,	52,	9,	-1,	-1,	-1,	-1,	-1,	50,	-1,	-1,	21,	-1,	19,	60,	-1,	24,	4,	10|
5,	39,	16,	-1,	-1,	-1,	60,	-1,	-1,	44,	63,	-1,	-1,	28,	-1,	30,	36,	-1,	53,	-1,	-1,	41,	-1,	-1,	8,	48,	-1,	3,	11,	21,	-1,	59,	9,	54,	42,	-1,	61,	1,	18,	33,	-1,	-1,	4,	-1,	51,	-1,	10,	25,	35,	49,	17,	-1,	64,	15,	38,	-1,	43,	2,	6,	46,	50,	52,	-1,	13|
52,	-1,	-1,	-1,	-1,	-1,	-1,	38,	-1,	20,	53,	36,	-1,	60,	19,	-1,	4,	56,	12,	-1,	-1,	-1,	11,	40,	-1,	-1,	-1,	-1,	-1,	-1,	26,	2,	-1,	24,	7,	-1,	-1,	-1,	48,	57,	-1,	34,	6,	18,	-1,	-1,	-1,	-1,	45,	-1,	3,	-1,	-1,	37,	28,	-1,	62,	41,	-1,	-1,	10,	30,	32,	59|
-1,	-1,	-1,	44,	13,	-1,	48,	28,	-1,	-1,	37,	-1,	52,	5,	26,	57,	-1,	51,	63,	-1,	-1,	-1,	-1,	33,	-1,	60,	-1,	-1,	-1,	20,	56,	-1,	-1,	-1,	-1,	-1,	-1,	21,	-1,	3,	-1,	41,	40,	16,	27,	-1,	-1,	-1,	-1,	6,	22,	43,	-1,	8,	-1,	47,	55,	38,	-1,	29,	-1,	11,	25,	39|
29,	20,	33,	-1,	59,	6,	2,	-1,	31,	62,	17,	-1,	-1,	24,	25,	43,	34,	-1,	-1,	-1,	-1,	7,	-1,	-1,	-1,	-1,	-1,	41,	-1,	-1,	-1,	53,	10,	-1,	40,	44,	22,	36,	27,	-1,	60,	-1,	-1,	-1,	19,	3,	64,	38,	39,	-1,	21,	-1,	55,	14,	-1,	-1,	63,	-1,	26,	47,	-1,	-1,	-1,	42|
50,	57,	-1,	21,	4,	7,	53,	-1,	59,	2,	42,	-1,	55,	-1,	-1,	-1,	22,	35,	-1,	24,	-1,	15,	-1,	31,	-1,	-1,	-1,	5,	63,	-1,	12,	25,	-1,	13,	39,	-1,	32,	-1,	41,	14,	23,	-1,	17,	-1,	46,	-1,	47,	11,	-1,	30,	18,	-1,	-1,	44,	16,	-1,	-1,	-1,	3,	-1,	1,	8,	9,	-1|
61,	-1,	-1,	-1,	-1,	-1,	8,	3,	-1,	21,	50,	-1,	32,	-1,	-1,	-1,	39,	-1,	18,	-1,	-1,	-1,	17,	-1,	-1,	45,	13,	51,	38,	-1,	-1,	57,	-1,	23,	-1,	-1,	-1,	47,	-1,	-1,	-1,	-1,	-1,	-1,	-1,	56,	14,	-1,	-1,	46,	-1,	20,	4,	-1,	41,	-1,	-1,	33,	-1,	-1,	27,	53,	-1,	44|
-1,	-1,	-1,	-1,	45,	18,	27,	36,	-1,	16,	-1,	39,	9,	-1,	41,	-1,	26,	46,	-1,	-1,	44,	-1,	30,	23,	31,	37,	-1,	-1,	-1,	-1,	47,	-1,	49,	-1,	-1,	17,	-1,	-1,	20,	12,	28,	59,	-1,	-1,	-1,	-1,	-1,	-1,	-1,	-1,	33,	13,	-1,	1,	57,	51,	19,	40,	14,	-1,	56,	-1,	61,	4|
58,	-1,	14,	-1,	56,	41,	-1,	-1,	7,	-1,	13,	29,	61,	51,	-1,	-1,	-1,	8,	32,	47,	-1,	-1,	64,	62,	-1,	28,	42,	23,	27,	-1,	-1,	10,	16,	19,	25,	26,	-1,	-1,	11,	43,	-1,	-1,	55,	44,	-1,	39,	-1,	-1,	-1,	-1,	63,	36,	48,	60,	54,	-1,	-1,	-1,	-1,	20,	35,	45,	-1,	-1|
-1,	-1,	30,	-1,	-1,	-1,	-1,	-1,	49,	54,	-1,	-1,	-1,	-1,	-1,	50,	53,	-1,	29,	32,	22,	-1,	24,	51,	45,	-1,	-1,	-1,	58,	48,	-1,	21,	60,	-1,	-1,	33,	18,	-1,	-1,	56,	-1,	52,	-1,	-1,	26,	6,	-1,	-1,	16,	4,	34,	-1,	41,	-1,	37,	2,	20,	-1,	-1,	64,	-1,	-1,	38,	-1|
9,	45,	34,	-1,	50,	38,	24,	58,	-1,	-1,	-1,	-1,	1,	-1,	-1,	-1,	-1,	-1,	-1,	59,	-1,	52,	10,	-1,	25,	29,	-1,	-1,	-1,	37,	-1,	61,	14,	-1,	4,	-1,	-1,	64,	40,	-1,	39,	30,	-1,	47,	-1,	-1,	-1,	-1,	43,	-1,	27,	48,	35,	46,	-1,	-1,	31,	23,	-1,	57,	-1,	42,	-1,	62|
-1,	37,	-1,	-1,	-1,	54,	-1,	53,	51,	-1,	-1,	35,	-1,	-1,	-1,	-1,	63,	-1,	50,	-1,	-1,	23,	-1,	47,	26,	36,	-1,	-1,	15,	46,	-1,	16,	31,	11,	-1,	-1,	2,	-1,	-1,	-1,	-1,	-1,	27,	28,	3,	-1,	8,	17,	40,	52,	-1,	14,	49,	-1,	-1,	-1,	22,	-1,	59,	24,	-1,	-1,	-1,	-1|
36,	3,	-1,	-1,	33,	62,	-1,	-1,	13,	-1,	-1,	63,	7,	44,	31,	29,	6,	-1,	14,	41,	8,	18,	-1,	-1,	-1,	22,	60,	10,	-1,	-1,	51,	-1,	-1,	-1,	-1,	-1,	55,	-1,	-1,	-1,	2,	53,	15,	20,	42,	-1,	19,	-1,	-1,	-1,	-1,	-1,	38,	5,	23,	-1,	-1,	-1,	-1,	-1,	-1,	-1,	-1,	-1|
-1,	40,	-1,	35,	-1,	-1,	-1,	-1,	28,	33,	57,	22,	30,	-1,	52,	45,	-1,	39,	-1,	-1,	11,	-1,	-1,	64,	62,	34,	-1,	-1,	20,	-1,	-1,	-1,	-1,	-1,	-1,	-1,	41,	-1,	-1,	38,	21,	-1,	50,	51,	-1,	-1,	-1,	-1,	47,	8,	-1,	10,	-1,	32,	-1,	19,	-1,	-1,	-1,	36,	18,	-1,	49,	-1|
1,	32,	-1,	10,	-1,	11,	-1,	41,	-1,	-1,	48,	37,	47,	16,	62,	20,	46,	43,	49,	-1,	-1,	61,	5,	42,	2,	52,	57,	-1,	44,	19,	55,	-1,	23,	-1,	-1,	-1,	-1,	58,	-1,	-1,	31,	-1,	-1,	-1,	-1,	-1,	34,	-1,	-1,	13,	-1,	-1,	30,	7,	3,	28,	40,	50,	-1,	-1,	-1,	6,	-1,	53|
-1,	21,	52,	-1,	-1,	59,	-1,	23,	6,	10,	-1,	-1,	-1,	-1,	58,	-1,	13,	62,	-1,	26,	54,	17,	4,	-1,	-1,	-1,	24,	63,	35,	12,	-1,	9,	-1,	-1,	-1,	-1,	45,	42,	46,	51,	-1,	48,	-1,	49,	-1,	-1,	55,	-1,	-1,	-1,	-1,	57,	20,	-1,	39,	44,	-1,	-1,	-1,	-1,	-1,	2,	-1,	-1|
16,	-1,	-1,	25,	44,	43,	20,	-1,	42,	-1,	-1,	-1,	-1,	-1,	61,	-1,	-1,	40,	21,	27,	-1,	9,	58,	1,	64,	-1,	-1,	-1,	18,	3,	49,	28,	48,	57,	-1,	-1,	-1,	-1,	-1,	-1,	45,	10,	12,	59,	-1,	-1,	4,	-1,	51,	62,	-1,	-1,	-1,	22,	-1,	54,	13,	7,	-1,	32,	-1,	33,	11,	-1|
-1,	4,	56,	-1,	61,	-1,	40,	-1,	18,	28,	-1,	-1,	48,	39,	-1,	-1,	35,	-1,	-1,	51,	64,	-1,	-1,	38,	63,	-1,	5,	13,	12,	43,	-1,	-1,	-1,	20,	-1,	57,	26,	60,	25,	-1,	-1,	-1,	19,	2,	36,	-1,	-1,	58,	-1,	24,	15,	44,	46,	21,	-1,	-1,	6,	52,	29,	-1,	41,	-1,	-1,	-1|
-1,	-1,	-1,	-1,	-1,	33,	-1,	-1,	-1,	41,	8,	-1,	51,	20,	-1,	-1,	-1,	-1,	57,	-1,	5,	11,	-1,	58,	16,	47,	-1,	-1,	-1,	38,	2,	-1,	-1,	17,	35,	56,	9,	-1,	-1,	63,	25,	50,	-1,	10,	-1,	-1,	46,	-1,	-1,	31,	45,	32,	-1,	-1,	-1,	-1,	-1,	-1,	-1,	28,	48,	-1,	-1,	-1|
19,	17,	1,	27,	-1,	24,	57,	18,	-1,	-1,	-1,	42,	-1,	13,	44,	56,	55,	-1,	2,	53,	-1,	22,	-1,	-1,	14,	-1,	-1,	-1,	-1,	36,	-1,	49,	-1,	37,	21,	6,	7,	-1,	-1,	-1,	-1,	29,	52,	-1,	-1,	-1,	28,	-1,	-1,	58,	-1,	-1,	11,	43,	-1,	-1,	61,	-1,	-1,	-1,	-1,	-1,	5,	-1|
48,	29,	47,	-1,	-1,	13,	-1,	11,	-1,	61,	-1,	-1,	57,	-1,	-1,	-1,	-1,	-1,	-1,	-1,	-1,	-1,	49,	54,	-1,	20,	52,	21,	8,	-1,	-1,	51,	-1,	62,	-1,	-1,	19,	-1,	53,	-1,	-1,	56,	30,	33,	-1,	23,	42,	-1,	-1,	10,	37,	16,	-1,	4,	-1,	59,	-1,	-1,	-1,	43,	-1,	-1,	58,	-1|
-1,	-1,	32,	22,	-1,	-1,	-1,	-1,	-1,	40,	-1,	-1,	54,	14,	64,	-1,	10,	59,	52,	8,	62,	44,	27,	7,	15,	-1,	-1,	57,	29,	-1,	31,	19,	36,	-1,	-1,	-1,	-1,	-1,	-1,	-1,	-1,	49,	53,	-1,	-1,	-1,	60,	37,	-1,	-1,	9,	61,	-1,	28,	51,	-1,	39,	11,	4,	-1,	-1,	-1,	45,	47|
7,	64,	36,	20,	63,	-1,	-1,	-1,	-1,	29,	11,	9,	-1,	37,	35,	60,	-1,	13,	45,	25,	39,	-1,	50,	-1,	-1,	24,	-1,	61,	-1,	-1,	-1,	-1,	-1,	58,	49,	23,	3,	31,	52,	47,	15,	-1,	-1,	-1,	4,	16,	41,	-1,	-1,	-1,	-1,	5,	-1,	6,	22,	34,	-1,	18,	-1,	-1,	-1,	26,	8,	1|
46,	53,	28,	-1,	6,	9,	-1,	31,	23,	-1,	19,	47,	49,	-1,	-1,	58,	43,	37,	-1,	40,	20,	32,	-1,	-1,	-1,	-1,	44,	7,	-1,	-1,	-1,	-1,	-1,	41,	-1,	-1,	-1,	-1,	-1,	24,	3,	-1,	-1,	13,	-1,	-1,	-1,	-1,	-1,	-1,	8,	-1,	26,	25,	-1,	29,	36,	35,	-1,	10,	-1,	62,	-1,	-1|
51,	50,	-1,	23,	-1,	16,	43,	44,	36,	30,	-1,	-1,	3,	-1,	7,	-1,	-1,	1,	-1,	31,	-1,	-1,	-1,	-1,	11,	-1,	28,	-1,	-1,	-1,	17,	-1,	-1,	14,	48,	-1,	42,	40,	-1,	-1,	61,	-1,	34,	-1,	-1,	-1,	-1,	-1,	57,	19,	47,	39,	-1,	-1,	35,	13,	12,	-1,	46,	37,	54,	-1,	2,	-1|
-1,	-1,	-1,	37,	-1,	-1,	30,	43,	52,	-1,	27,	-1,	-1,	-1,	48,	19,	49,	20,	26,	2,	-1,	-1,	32,	-1,	35,	-1,	61,	-1,	-1,	45,	-1,	13,	29,	-1,	-1,	50,	11,	7,	42,	58,	-1,	-1,	-1,	-1,	34,	-1,	-1,	4,	-1,	-1,	-1,	18,	47,	63,	24,	22,	-1,	62,	54,	14,	-1,	-1,	-1,	-1|
42,	-1,	6,	60,	-1,	36,	-1,	4,	-1,	63,	18,	51,	-1,	-1,	-1,	47,	23,	-1,	-1,	-1,	52,	28,	14,	-1,	20,	59,	39,	2,	22,	57,	5,	-1,	-1,	-1,	-1,	-1,	-1,	-1,	-1,	15,	-1,	-1,	46,	-1,	-1,	-1,	-1,	50,	-1,	-1,	-1,	-1,	-1,	-1,	-1,	8,	-1,	-1,	48,	-1,	11,	16,	55,	-1|
18,	62,	-1,	56,	-1,	63,	44,	-1,	37,	-1,	-1,	4,	-1,	58,	30,	-1,	-1,	-1,	8,	33,	53,	45,	-1,	-1,	-1,	11,	-1,	-1,	16,	-1,	38,	32,	-1,	-1,	23,	-1,	-1,	13,	-1,	-1,	6,	36,	-1,	3,	10,	-1,	51,	-1,	-1,	-1,	-1,	-1,	-1,	19,	14,	-1,	-1,	24,	12,	21,	60,	39,	34,	52|
-1,	-1,	-1,	-1,	12,	-1,	21,	-1,	-1,	-1,	20,	44,	8,	-1,	-1,	-1,	-1,	-1,	60,	-1,	4,	24,	63,	-1,	42,	-1,	48,	-1,	-1,	55,	-1,	-1,	61,	-1,	53,	51,	14,	-1,	57,	-1,	41,	-1,	-1,	40,	-1,	32,	-1,	29,	-1,	35,	-1,	-1,	15,	62,	52,	5,	-1,	10,	7,	26,	-1,	-1,	-1,	45|
54,	-1,	-1,	46,	31,	58,	-1,	48,	11,	-1,	16,	53,	28,	40,	9,	-1,	37,	29,	-1,	-1,	-1,	-1,	-1,	-1,	-1,	-1,	1,	-1,	-1,	-1,	52,	44,	-1,	36,	-1,	4,	38,	-1,	56,	-1,	-1,	8,	-1,	45,	-1,	5,	23,	-1,	25,	2,	-1,	3,	10,	-1,	-1,	-1,	32,	-1,	-1,	6,	22,	20,	-1,	41|
24,	-1,	-1,	-1,	-1,	-1,	-1,	-1,	34,	22,	-1,	-1,	43,	7,	49,	-1,	-1,	42,	6,	21,	30,	13,	55,	17,	-1,	10,	50,	53,	-1,	-1,	-1,	-1,	47,	33,	-1,	-1,	-1,	25,	-1,	-1,	52,	16,	-1,	-1,	59,	37,	39,	-1,	56,	48,	-1,	41,	32,	-1,	-1,	-1,	1,	5,	-1,	-1,	-1,	-1,	40,	-1|
-1,	13,	27,	39,	26,	20,	-1,	47,	-1,	-1,	14,	1,	5,	-1,	-1,	-1,	-1,	38,	-1,	-1,	10,	-1,	-1,	-1,	40,	-1,	-1,	30,	-1,	28,	-1,	4,	-1,	21,	-1,	-1,	31,	-1,	-1,	-1,	-1,	-1,	48,	-1,	-1,	54,	22,	-1,	-1,	-1,	-1,	29,	-1,	45,	34,	12,	-1,	36,	49,	59,	-1,	18,	35,	19|
32,	-1,	-1,	-1,	-1,	-1,	49,	15,	-1,	-1,	36,	-1,	38,	17,	-1,	21,	25,	-1,	-1,	-1,	-1,	40,	34,	18,	-1,	62,	-1,	-1,	26,	24,	-1,	-1,	46,	59,	-1,	-1,	48,	28,	-1,	55,	20,	14,	7,	42,	-1,	-1,	56,	35,	-1,	39,	31,	30,	50,	11,	4,	37,	-1,	53,	43,	-1,	44,	61,	-1,	64|
25,	48,	-1,	-1,	43,	-1,	-1,	49,	9,	46,	-1,	16,	-1,	47,	-1,	13,	62,	6,	-1,	-1,	-1,	31,	15,	26,	32,	1,	53,	17,	59,	11,	21,	38,	-1,	60,	-1,	-1,	4,	-1,	2,	23,	57,	64,	-1,	36,	-1,	12,	-1,	-1,	-1,	61,	-1,	-1,	-1,	-1,	-1,	39,	-1,	-1,	-1,	-1,	-1,	-1,	-1,	8|
39,	55,	54,	-1,	11,	-1,	-1,	24,	-1,	-1,	-1,	-1,	-1,	-1,	28,	-1,	51,	-1,	-1,	-1,	43,	33,	29,	59,	48,	44,	-1,	18,	-1,	-1,	-1,	-1,	-1,	-1,	-1,	-1,	-1,	-1,	-1,	-1,	26,	-1,	-1,	61,	31,	42,	-1,	62,	-1,	-1,	-1,	1,	16,	3,	21,	-1,	-1,	-1,	-1,	-1,	6,	10,	-1,	22|
38,	-1,	-1,	6,	37,	-1,	16,	-1,	-1,	-1,	23,	64,	-1,	48,	8,	61,	7,	53,	17,	-1,	-1,	47,	-1,	-1,	-1,	56,	-1,	-1,	50,	22,	35,	42,	-1,	1,	-1,	-1,	25,	-1,	-1,	62,	51,	-1,	-1,	19,	18,	-1,	29,	24,	-1,	-1,	20,	-1,	45,	52,	11,	-1,	59,	57,	-1,	58,	31,	-1,	-1,	-1|
33,	9,	8,	-1,	21,	40,	61,	-1,	29,	-1,	-1,	2,	11,	4,	1,	42,	60,	-1,	-1,	45,	36,	-1,	3,	-1,	-1,	19,	-1,	46,	-1,	-1,	-1,	-1,	5,	-1,	44,	-1,	-1,	-1,	-1,	-1,	-1,	27,	-1,	-1,	35,	-1,	53,	-1,	28,	50,	-1,	17,	12,	-1,	-1,	57,	-1,	54,	-1,	63,	-1,	64,	-1,	26|
23,	-1,	-1,	-1,	-1,	31,	1,	64,	-1,	6,	-1,	-1,	35,	34,	-1,	-1,	44,	32,	61,	37,	-1,	27,	18,	-1,	12,	9,	-1,	54,	43,	63,	-1,	55,	33,	29,	16,	45,	51,	-1,	-1,	-1,	59,	-1,	56,	17,	-1,	-1,	-1,	-1,	22,	42,	-1,	-1,	-1,	38,	53,	-1,	30,	4,	20,	-1,	-1,	-1,	-1,	11|
-1,	56,	42,	28,	-1,	-1,	3,	-1,	-1,	-1,	39,	30,	19,	-1,	36,	-1,	14,	-1,	22,	-1,	1,	5,	54,	8,	-1,	13,	29,	33,	-1,	-1,	-1,	-1,	-1,	-1,	34,	35,	6,	41,	61,	-1,	40,	38,	-1,	-1,	-1,	-1,	50,	-1,	-1,	-1,	-1,	62,	18,	-1,	46,	-1,	-1,	-1,	-1,	-1,	2,	25,	16,	-1|
-1,	27,	-1,	12,	-1,	32,	-1,	13,	60,	-1,	24,	57,	-1,	18,	38,	62,	41,	-1,	35,	-1,	40,	42,	28,	9,	7,	-1,	36,	49,	52,	2,	-1,	45,	-1,	-1,	-1,	-1,	-1,	20,	50,	-1,	-1,	58,	-1,	-1,	-1,	-1,	-1,	-1,	30,	-1,	6,	26,	8,	-1,	43,	10,	-1,	1,	-1,	61,	-1,	-1,	44,	-1|
10,	26,	18,	15,	17,	-1,	41,	60,	50,	7,	-1,	59,	27,	-1,	51,	-1,	56,	48,	16,	-1,	-1,	46,	-1,	-1,	5,	61,	-1,	34,	-1,	-1,	-1,	62,	3,	-1,	14,	-1,	47,	11,	-1,	39,	8,	-1,	28,	54,	-1,	1,	32,	-1,	31,	64,	-1,	-1,	9,	13,	63,	-1,	-1,	29,	-1,	-1,	-1,	36,	53,	-1|];
