benchmarks_LEQ/INST_64x64/50/inst64x64_50_15.txt
8
1
-1	-1	-1	-1	-1	-1	31	-1	-1	-1	-1	-1	-1	62	-1	-1	-1	-1	-1	64	29	63	13	-1	3	-1	-1	45	-1	47	14	48	52	25	-1	43	-1	-1	-1	-1	24	-1	-1	8	38	50	30	-1	-1	26	46	-1	-1	-1	-1	21	-1	-1	-1	-1	53	4	41	-1
12	-1	2	3	36	28	-1	-1	-1	9	1	13	-1	-1	-1	-1	38	-1	24	-1	7	49	-1	35	-1	-1	21	-1	-1	29	-1	56	53	63	57	40	15	62	47	-1	-1	-1	60	34	64	48	6	27	-1	-1	39	-1	-1	-1	58	-1	-1	26	-1	-1	17	-1	-1	16
44	30	61	-1	-1	-1	-1	-1	3	-1	25	20	-1	53	54	-1	-1	-1	10	-1	-1	21	52	-1	55	-1	-1	58	-1	-1	8	-1	35	-1	-1	13	-1	23	-1	-1	-1	-1	11	-1	-1	41	12	-1	17	16	-1	27	-1	-1	7	-1	-1	49	-1	-1	5	-1	62	32
-1	-1	-1	64	49	-1	-1	56	-1	-1	21	-1	-1	-1	16	28	-1	-1	30	-1	47	-1	-1	11	33	-1	46	59	-1	62	25	41	1	32	-1	14	-1	10	60	45	-1	-1	-1	-1	-1	51	26	7	-1	15	-1	-1	54	9	18	40	3	55	39	-1	34	44	-1	63
8	-1	60	33	62	15	13	-1	63	36	-1	-1	-1	23	-1	52	28	-1	39	-1	41	-1	1	56	-1	-1	-1	-1	-1	26	53	-1	30	12	-1	-1	-1	-1	16	48	14	-1	-1	-1	49	19	-1	21	61	-1	11	45	-1	-1	29	-1	50	46	-1	31	24	57	-1	-1
40	-1	35	26	-1	-1	-1	1	19	-1	-1	8	2	-1	24	-1	-1	-1	37	9	-1	50	-1	32	10	27	16	60	5	-1	18	-1	20	-1	-1	-1	21	-1	33	46	4	-1	-1	22	39	28	-1	59	55	63	-1	12	-1	-1	25	62	-1	14	61	-1	-1	-1	15	6
-1	-1	23	9	27	-1	-1	-1	33	26	47	31	-1	-1	50	51	17	-1	43	61	14	-1	57	-1	52	-1	-1	-1	28	13	24	34	-1	-1	-1	-1	-1	37	-1	41	-1	55	-1	15	-1	-1	-1	32	49	44	1	-1	22	-1	-1	3	-1	20	-1	-1	40	-1	-1	38
43	6	20	55	16	-1	18	45	58	12	-1	-1	64	29	-1	-1	-1	-1	27	36	-1	-1	40	-1	-1	17	19	11	49	54	-1	-1	50	44	51	34	39	-1	38	2	-1	-1	25	-1	61	-1	-1	13	4	-1	32	-1	57	-1	10	-1	-1	-1	8	-1	-1	59	-1	-1
55	-1	10	-1	23	-1	-1	51	48	14	-1	-1	-1	-1	15	-1	-1	-1	9	-1	63	35	26	24	57	-1	3	43	-1	-1	61	11	-1	-1	62	-1	-1	34	-1	49	-1	-1	29	-1	-1	30	-1	-1	-1	20	53	-1	7	41	-1	60	-1	-1	-1	-1	38	-1	28	40
-1	46	37	-1	7	-1	32	-1	44	-1	29	28	40	33	-1	-1	-1	-1	11	6	60	-1	-1	-1	41	-1	30	-1	42	-1	36	1	-1	-1	43	-1	-1	2	63	-1	34	-1	23	57	21	15	17	-1	18	-1	-1	-1	-1	39	31	27	4	-1	-1	53	-1	13	59	-1
-1	-1	-1	36	42	26	4	-1	-1	-1	2	-1	22	-1	59	-1	5	-1	-1	58	19	48	-1	13	-1	-1	45	-1	-1	-1	44	-1	25	-1	-1	-1	-1	-1	14	-1	-1	9	-1	50	-1	-1	31	-1	24	-1	-1	40	-1	-1	-1	6	-1	51	-1	49	12	-1	10	56
-1	-1	-1	-1	-1	-1	-1	21	-1	-1	60	26	-1	8	-1	-1	61	17	33	-1	-1	-1	-1	53	47	-1	-1	-1	13	51	59	-1	-1	46	10	-1	-1	57	-1	-1	49	39	-1	4	14	58	-1	-1	52	-1	23	22	-1	12	19	-1	-1	42	9	-1	43	41	6	-1
60	49	58	34	29	1	56	57	-1	-1	-1	-1	-1	55	-1	23	-1	-1	44	-1	32	-1	-1	-1	46	-1	12	-1	10	14	-1	-1	26	45	-1	-1	-1	3	31	50	-1	28	-1	5	43	-1	61	41	8	-1	-1	38	13	-1	2	-1	35	64	-1	-1	21	-1	54	-1
6	-1	-1	14	35	-1	33	-1	30	-1	-1	-1	20	-1	13	-1	-1	-1	51	50	23	-1	-1	43	53	2	64	22	-1	-1	-1	5	-1	-1	-1	39	40	-1	1	-1	-1	62	63	-1	-1	-1	18	3	42	-1	-1	28	36	-1	26	9	37	8	-1	-1	15	7	-1	57
-1	61	-1	-1	-1	-1	9	40	46	-1	43	58	39	-1	57	11	-1	-1	34	28	42	-1	-1	10	56	-1	35	-1	-1	31	-1	37	41	-1	-1	-1	17	-1	-1	13	19	7	20	-1	48	-1	1	-1	32	51	-1	63	-1	-1	-1	49	26	-1	36	55	29	-1	-1	14
62	18	43	53	-1	-1	-1	8	-1	-1	-1	21	16	-1	-1	-1	-1	-1	-1	57	-1	2	-1	-1	-1	-1	-1	-1	-1	17	-1	50	4	48	64	-1	-1	38	30	-1	13	-1	10	6	24	36	-1	-1	-1	37	-1	33	-1	29	61	-1	23	-1	-1	-1	39	-1	-1	3
-1	2	53	48	58	60	23	52	39	-1	-1	-1	-1	22	43	15	29	10	47	-1	17	19	-1	41	44	-1	8	-1	-1	-1	-1	24	42	18	30	-1	-1	46	-1	27	-1	6	62	-1	33	40	-1	-1	-1	-1	4	35	37	61	45	-1	57	-1	28	-1	-1	-1	20	-1
14	-1	44	32	-1	51	-1	33	16	-1	-1	-1	21	56	-1	54	11	5	-1	39	48	55	-1	4	-1	63	10	26	41	-1	-1	-1	57	9	20	-1	24	45	-1	-1	36	23	3	-1	7	27	-1	-1	13	-1	-1	-1	60	-1	8	-1	-1	47	50	-1	-1	35	42	-1
21	42	-1	-1	22	-1	-1	-1	64	-1	-1	-1	24	52	29	63	-1	7	-1	15	57	12	23	50	-1	6	-1	-1	-1	-1	-1	36	-1	-1	-1	61	-1	-1	51	-1	44	20	-1	-1	11	14	35	-1	26	3	-1	-1	56	-1	-1	-1	-1	37	32	8	59	-1	-1	-1
35	-1	19	8	-1	-1	29	26	5	58	28	-1	37	36	-1	41	-1	52	3	13	27	53	61	21	-1	-1	-1	38	-1	25	-1	60	-1	6	-1	48	16	-1	-1	44	-1	54	-1	39	47	46	-1	-1	-1	-1	-1	-1	31	20	-1	30	-1	34	-1	-1	64	56	33	-1
-1	43	64	-1	18	39	46	-1	14	35	12	55	45	-1	-1	-1	8	25	-1	44	-1	-1	-1	-1	-1	54	2	50	-1	33	11	20	-1	28	31	7	52	-1	-1	-1	-1	-1	-1	-1	56	-1	-1	34	21	40	29	-1	23	-1	62	16	41	-1	-1	38	26	-1	27	17
-1	-1	12	-1	-1	10	11	-1	-1	-1	-1	62	-1	42	-1	-1	45	58	-1	54	-1	16	-1	-1	-1	-1	59	-1	1	34	-1	-1	-1	38	8	41	-1	39	-1	-1	-1	17	-1	-1	2	-1	49	-1	-1	7	-1	15	51	36	27	55	5	-1	44	-1	-1	-1	-1	-1
13	59	-1	41	-1	37	-1	-1	20	31	-1	11	50	57	-1	-1	-1	-1	64	60	-1	-1	-1	-1	-1	-1	-1	62	-1	-1	-1	43	-1	47	-1	49	10	-1	-1	-1	-1	-1	51	30	-1	-1	15	45	38	-1	44	42	-1	-1	-1	-1	-1	-1	-1	39	63	40	46	-1
-1	-1	-1	49	-1	-1	55	-1	-1	1	-1	-1	44	-1	-1	-1	-1	14	-1	-1	6	-1	20	-1	61	-1	-1	15	47	-1	-1	17	11	26	33	36	23	43	-1	53	37	12	42	-1	29	-1	-1	-1	63	22	-1	-1	-1	50	59	18	-1	-1	19	60	-1	-1	4	-1
-1	-1	-1	31	-1	-1	60	-1	-1	44	-1	45	-1	28	-1	30	-1	-1	-1	14	58	-1	-1	-1	-1	48	40	-1	-1	-1	-1	-1	-1	-1	-1	37	61	-1	-1	33	-1	57	-1	-1	-1	26	-1	25	-1	-1	17	-1	-1	-1	-1	-1	43	2	-1	46	50	52	-1	-1
-1	-1	9	47	-1	-1	51	38	15	-1	53	36	-1	-1	-1	-1	4	56	12	16	-1	43	-1	-1	-1	35	-1	-1	33	39	-1	-1	-1	24	7	55	46	50	-1	-1	-1	-1	6	18	-1	61	-1	-1	45	27	3	-1	-1	37	28	-1	-1	41	23	5	10	30	-1	-1
-1	-1	24	-1	13	-1	48	-1	4	-1	37	34	-1	5	-1	57	50	51	63	-1	61	54	2	33	-1	-1	9	19	-1	20	-1	-1	45	-1	-1	-1	62	-1	15	-1	32	-1	40	16	-1	-1	36	53	10	-1	22	-1	59	-1	-1	47	-1	-1	-1	-1	7	11	-1	-1
29	-1	33	1	-1	6	-1	35	-1	-1	17	-1	-1	24	25	-1	34	57	13	52	37	7	48	-1	54	15	18	41	32	-1	-1	53	10	56	40	-1	22	-1	27	4	-1	-1	-1	12	19	3	-1	-1	39	-1	21	-1	55	14	-1	-1	63	16	-1	47	49	-1	-1	-1
-1	-1	26	-1	-1	7	53	-1	59	2	42	-1	-1	64	33	27	-1	35	28	-1	-1	-1	6	-1	-1	58	-1	5	63	52	-1	25	38	-1	39	29	32	-1	41	14	23	-1	-1	62	46	-1	-1	11	19	30	18	56	40	-1	-1	61	-1	60	-1	-1	1	8	9	-1
-1	-1	-1	-1	64	-1	8	3	1	21	-1	40	32	-1	11	12	39	-1	18	29	-1	-1	-1	49	43	45	-1	-1	-1	-1	-1	57	6	-1	-1	-1	63	47	-1	-1	30	37	5	-1	54	-1	-1	-1	58	46	62	20	-1	-1	-1	26	-1	33	-1	-1	27	53	36	44
11	22	-1	-1	-1	18	-1	36	10	-1	-1	-1	9	6	-1	38	26	-1	-1	-1	44	-1	-1	-1	31	-1	-1	29	62	50	-1	-1	49	34	-1	-1	-1	-1	-1	12	28	59	-1	-1	-1	21	-1	-1	-1	-1	33	-1	-1	-1	-1	51	19	-1	14	-1	56	-1	61	4
58	12	14	-1	-1	-1	37	46	7	-1	-1	29	61	-1	3	-1	59	-1	-1	47	38	1	-1	62	-1	-1	42	-1	-1	4	-1	-1	16	-1	-1	26	-1	30	-1	-1	-1	-1	55	44	-1	-1	9	-1	34	53	63	-1	48	60	54	-1	17	21	-1	-1	35	-1	-1	18
-1	8	30	63	15	-1	42	7	49	54	3	23	-1	-1	-1	50	-1	19	-1	-1	-1	57	24	-1	45	39	11	-1	58	-1	27	21	-1	5	13	33	18	17	59	-1	-1	-1	36	-1	26	6	62	14	16	4	34	25	-1	-1	37	2	20	44	-1	-1	-1	-1	-1	-1
9	45	-1	17	50	-1	24	58	-1	-1	26	5	1	11	-1	-1	-1	-1	15	-1	28	-1	-1	-1	25	29	-1	-1	-1	37	-1	-1	-1	-1	4	16	-1	64	-1	22	-1	-1	-1	47	44	13	7	63	-1	-1	27	-1	-1	46	6	53	-1	-1	-1	-1	19	-1	-1	-1
-1	-1	48	18	-1	-1	6	-1	-1	39	-1	-1	60	-1	21	55	63	-1	-1	7	34	-1	25	47	-1	36	-1	1	15	-1	13	-1	-1	-1	19	-1	2	44	62	10	-1	32	27	28	3	-1	-1	-1	40	-1	-1	-1	49	42	33	-1	22	58	59	-1	4	12	29	-1
36	-1	-1	4	-1	-1	26	61	13	43	46	-1	7	44	-1	-1	-1	45	-1	41	-1	-1	35	-1	-1	-1	-1	10	17	-1	51	-1	-1	-1	-1	52	55	54	24	-1	2	53	-1	-1	42	57	-1	40	-1	-1	58	-1	38	-1	-1	11	-1	39	-1	16	-1	-1	-1	-1
31	40	13	35	-1	-1	12	2	28	-1	-1	22	30	59	-1	-1	16	-1	56	48	11	3	-1	-1	62	-1	-1	6	-1	-1	42	23	15	7	61	-1	-1	9	43	38	-1	1	50	-1	-1	60	37	5	47	-1	-1	-1	24	32	-1	-1	-1	63	-1	36	18	54	49	-1
1	32	51	10	-1	11	22	-1	-1	4	48	-1	47	16	62	-1	-1	-1	49	-1	33	61	5	42	2	-1	-1	8	-1	-1	-1	-1	-1	-1	-1	-1	29	-1	35	21	-1	-1	-1	-1	25	64	-1	-1	15	-1	12	-1	30	-1	-1	-1	-1	50	-1	-1	9	-1	-1	-1
27	-1	52	19	5	-1	-1	-1	-1	10	15	-1	-1	-1	58	-1	13	-1	36	-1	54	17	-1	60	38	-1	24	63	-1	-1	-1	9	28	50	47	-1	45	-1	-1	51	-1	-1	61	49	16	-1	-1	33	29	18	-1	-1	-1	31	-1	44	8	-1	34	-1	-1	2	-1	43
-1	14	39	25	44	43	20	-1	42	-1	-1	-1	-1	19	-1	24	2	-1	-1	-1	31	-1	-1	-1	-1	5	-1	-1	18	-1	49	28	-1	-1	37	-1	30	-1	26	-1	-1	10	12	59	23	-1	-1	-1	-1	62	36	50	63	22	-1	54	-1	-1	-1	-1	52	33	11	35
-1	-1	-1	45	-1	-1	-1	37	18	28	32	33	48	39	-1	16	35	-1	23	-1	64	34	42	38	-1	53	5	13	-1	-1	-1	-1	55	20	11	57	-1	60	-1	1	-1	31	-1	-1	-1	62	59	-1	-1	24	15	44	-1	-1	-1	7	-1	52	-1	27	-1	14	17	-1
-1	-1	-1	-1	-1	33	-1	-1	-1	-1	-1	52	51	20	-1	1	-1	61	57	-1	5	-1	36	58	-1	-1	6	37	-1	-1	-1	26	-1	-1	-1	-1	-1	-1	29	-1	25	-1	-1	10	-1	44	-1	43	-1	31	-1	-1	-1	49	-1	-1	-1	19	24	28	48	-1	23	34
19	-1	1	27	41	-1	-1	-1	38	50	10	-1	62	-1	44	-1	55	33	-1	-1	3	-1	-1	-1	14	4	34	-1	48	36	32	49	-1	37	-1	-1	-1	15	39	-1	-1	-1	52	26	-1	-1	28	-1	60	-1	-1	23	11	43	-1	-1	-1	59	31	-1	-1	51	-1	-1
-1	29	-1	-1	14	13	-1	11	-1	61	-1	-1	-1	2	34	-1	-1	63	41	17	-1	-1	49	54	-1	20	-1	-1	8	-1	-1	-1	18	-1	28	-1	19	-1	53	-1	7	56	30	33	-1	-1	42	39	36	-1	-1	-1	-1	-1	-1	-1	44	-1	55	-1	-1	15	58	50
-1	-1	-1	22	30	-1	5	25	-1	-1	-1	-1	54	-1	64	46	10	-1	-1	-1	62	44	-1	7	-1	-1	-1	57	-1	42	31	-1	-1	-1	38	2	50	-1	34	16	35	49	53	-1	-1	-1	60	-1	48	-1	-1	61	17	-1	-1	41	39	-1	-1	13	20	63	-1	47
-1	64	36	20	63	12	-1	-1	43	-1	11	9	17	37	-1	-1	-1	13	-1	25	39	14	-1	-1	-1	24	62	61	-1	40	-1	27	44	58	49	-1	3	31	52	-1	-1	51	-1	21	4	-1	41	48	-1	-1	-1	5	-1	-1	-1	-1	53	-1	-1	56	-1	-1	-1	1
-1	-1	-1	2	-1	9	-1	-1	-1	-1	19	47	49	-1	-1	-1	43	-1	48	40	-1	32	12	16	18	-1	-1	7	45	1	50	39	51	41	-1	-1	59	-1	4	-1	-1	11	54	-1	17	-1	27	57	33	14	8	52	26	25	56	-1	-1	35	-1	-1	42	-1	-1	60
-1	-1	62	23	52	16	-1	-1	-1	-1	-1	-1	-1	26	7	6	21	-1	4	31	-1	56	60	29	11	-1	28	64	25	-1	17	-1	-1	14	48	-1	42	40	45	-1	61	-1	34	55	-1	-1	-1	-1	57	-1	47	-1	-1	-1	-1	13	12	9	-1	37	54	38	2	-1
-1	-1	40	-1	-1	-1	-1	43	-1	-1	-1	41	-1	25	-1	19	-1	20	-1	-1	59	39	-1	36	-1	33	61	-1	6	-1	23	-1	-1	16	60	50	-1	-1	-1	58	-1	-1	9	-1	-1	55	44	4	64	17	28	18	-1	-1	24	22	-1	62	-1	14	8	-1	-1	-1
42	-1	-1	-1	-1	-1	45	4	-1	63	18	51	29	-1	-1	-1	23	-1	54	35	-1	-1	-1	-1	20	-1	-1	-1	-1	-1	-1	31	-1	-1	-1	-1	-1	-1	-1	15	53	-1	-1	24	-1	-1	43	50	9	-1	-1	21	58	-1	-1	8	56	-1	-1	3	-1	-1	55	-1
18	-1	55	56	28	63	-1	9	-1	-1	-1	4	15	58	-1	-1	-1	50	8	-1	53	45	22	48	29	-1	54	25	-1	41	-1	-1	40	2	23	-1	43	13	-1	17	-1	-1	-1	3	10	31	51	-1	59	1	7	-1	61	-1	-1	20	-1	-1	12	-1	-1	-1	34	52
-1	38	59	16	-1	-1	21	-1	56	-1	-1	44	8	-1	-1	33	64	11	60	43	4	-1	63	3	42	-1	48	-1	-1	55	37	18	61	22	-1	51	-1	-1	-1	30	-1	25	-1	-1	-1	32	-1	29	27	35	-1	-1	-1	62	52	-1	-1	-1	-1	26	-1	-1	-1	45
54	33	57	-1	-1	58	-1	48	-1	24	-1	53	-1	40	-1	59	-1	29	-1	-1	-1	51	47	-1	-1	64	-1	14	21	-1	-1	44	39	36	63	-1	-1	35	56	-1	18	8	49	-1	-1	5	23	15	25	-1	42	3	-1	-1	-1	43	32	17	-1	-1	-1	20	30	41
24	-1	29	11	3	-1	14	-1	-1	22	62	-1	-1	-1	-1	26	-1	-1	6	-1	30	13	-1	17	-1	10	-1	53	-1	8	63	-1	47	33	-1	-1	-1	25	9	-1	-1	16	2	27	-1	37	-1	-1	-1	-1	-1	41	-1	-1	44	-1	1	5	-1	4	58	-1	40	28
64	-1	27	39	-1	20	-1	47	-1	32	14	1	5	50	23	2	-1	38	-1	46	10	58	56	44	-1	-1	17	-1	51	28	-1	4	-1	21	41	-1	31	6	3	-1	-1	-1	48	-1	57	-1	-1	-1	53	-1	16	29	-1	-1	-1	12	-1	36	49	59	-1	18	35	-1
32	-1	41	-1	-1	-1	49	-1	57	-1	36	-1	-1	-1	-1	-1	25	9	-1	5	16	-1	-1	18	58	-1	-1	12	-1	-1	-1	-1	46	59	-1	-1	-1	28	-1	-1	-1	14	7	42	13	-1	-1	35	-1	39	-1	-1	-1	11	-1	37	-1	-1	43	-1	44	-1	63	64
-1	48	-1	29	43	-1	7	49	-1	46	-1	-1	33	-1	20	-1	-1	6	-1	-1	-1	-1	15	-1	-1	-1	53	17	-1	11	21	38	-1	-1	-1	-1	-1	-1	2	23	-1	64	-1	-1	-1	-1	3	30	-1	61	-1	-1	44	-1	5	39	-1	28	35	18	-1	34	56	8
39	55	-1	58	11	53	-1	-1	-1	45	-1	-1	63	15	-1	-1	51	2	-1	-1	43	33	29	-1	-1	-1	-1	18	-1	64	-1	8	-1	30	-1	38	57	49	-1	-1	26	4	47	-1	31	-1	-1	62	-1	-1	-1	1	16	-1	21	23	-1	27	-1	50	6	-1	14	-1
-1	-1	-1	-1	37	-1	-1	-1	54	-1	-1	-1	-1	-1	8	61	-1	-1	-1	-1	-1	47	-1	-1	-1	56	-1	40	50	-1	-1	42	43	-1	-1	9	25	26	-1	-1	51	-1	33	-1	-1	-1	-1	24	14	-1	20	-1	-1	-1	-1	4	-1	57	-1	-1	31	32	-1	-1
-1	9	-1	-1	21	40	-1	-1	-1	-1	22	2	-1	-1	1	42	-1	24	-1	-1	-1	-1	3	-1	23	-1	14	-1	-1	6	-1	-1	-1	10	-1	-1	37	48	-1	-1	-1	27	43	52	-1	-1	-1	20	-1	-1	51	-1	-1	-1	15	-1	49	54	-1	-1	-1	64	7	26
-1	36	50	5	2	31	-1	-1	40	6	58	10	-1	-1	-1	3	44	32	61	-1	13	-1	18	-1	12	9	26	-1	-1	63	-1	55	33	29	16	45	51	-1	8	28	-1	46	-1	17	41	-1	21	60	-1	-1	-1	-1	25	-1	53	48	-1	4	20	62	47	19	39	11
-1	-1	42	28	20	45	-1	63	-1	55	-1	-1	-1	21	36	53	-1	-1	-1	23	1	5	54	8	51	13	29	-1	24	10	-1	58	-1	31	-1	-1	-1	-1	61	-1	40	-1	-1	-1	-1	11	-1	49	-1	47	60	-1	-1	27	-1	32	48	-1	37	-1	2	25	16	-1
47	-1	-1	12	-1	-1	-1	-1	60	-1	24	-1	-1	-1	-1	-1	-1	34	35	11	-1	42	28	9	-1	16	36	49	52	2	3	-1	22	53	15	64	56	-1	-1	54	48	58	39	-1	55	-1	-1	23	30	-1	6	-1	-1	59	-1	10	-1	1	-1	-1	33	5	-1	-1
-1	-1	18	-1	-1	-1	-1	60	50	-1	49	-1	27	-1	-1	44	56	48	-1	-1	-1	46	-1	52	-1	-1	-1	-1	-1	-1	-1	-1	3	-1	-1	12	-1	-1	19	-1	8	-1	28	-1	22	1	-1	-1	31	64	-1	-1	-1	13	-1	33	38	29	42	-1	-1	36	-1	-1
64 
61 7 39 36
18 57 4 49
15 3 29 59
44 54 22 28
8 11 36 54
53 60 23 58
30 31 8 64
26 16 28 43
45 51 44 30
24 64 32 32
2 59 1 3
10 33 54 37
47 44 53 59
63 44 45 14
20 2 3 30
15 23 10 28
4 41 40 10
38 42 25 39
63 7 7 33
34 17 29 46
25 30 45 9
25 41 42 62
23 30 39 8
57 33 44 17
9 44 13 26
53 54 23 22
4 37 27 45
27 8 60 49
49 33 11 32
50 45 2 26
8 56 24 27
1 8 25 5
55 53 45 38
16 53 62 35
27 34 54 2
38 35 47 57
50 33 11 16
34 6 11 12
27 64 54 47
38 57 26 24
2 9 39 60
9 41 58 46
6 53 55 26
16 49 26 28
14 50 56 15
14 44 52 61
36 62 42 26
4 6 19 62
29 27 19 55
17 41 46 23
37 44 13 10
34 22 50 21
13 37 52 35
11 41 29 57
31 27 20 41
43 16 9 20
57 41 60 56
21 33 45 2
42 4 1 13
50 4 21 42
43 57 18 11
50 36 44 34
43 56 25 11
54 48 15 22
